benchmarks/bfuzz0/2667010381204962342127790347892617212.smt2
(set-logic QF_FP)
(declare-const x0 (_ FloatingPoint 11 53))
(declare-const x1 (_ FloatingPoint 11 53))
(declare-const x2 (_ FloatingPoint 11 53))
(declare-const x3 (_ FloatingPoint 11 53))
(declare-const x4 (_ FloatingPoint 11 53))
(declare-const x5 (_ FloatingPoint 11 53))
(declare-const x6 (_ FloatingPoint 11 53))
(declare-const x7 (_ FloatingPoint 11 53))
(declare-const x8 (_ FloatingPoint 11 53))
(declare-const x9 (_ FloatingPoint 11 53))
(assert (fp.gt (fp.add RNE x7 x0) (fp.div RNE x7 x9)))
(assert (fp.lt (fp.add RNE x1 x4) (fp.neg x0)))
(assert (fp.eq (fp.sub RNE x1 x5) (fp.mul RNE x8 x5)))
(assert (fp.geq (fp.add RNE x6 x6) (fp.sub RNE x2 x1)))
(assert (fp.eq (fp.div RNE x4 x6) (fp.add RNE x1 x4)))
(assert (fp.leq (fp.sub RNE x1 x3) (fp.sub RNE x8 x5)))
(assert (fp.geq (fp.add RNE x8 x1) (fp.mul RNE x5 x1)))
(assert (fp.geq (fp.add RNE x0 x1) (fp.add RNE x5 x6)))
(assert (fp.lt (fp.add RNE x1 x4) (fp.sub RNE x1 x7)))
(assert (fp.leq (fp.neg x3) (fp.add RNE x4 x4)))
(assert (fp.lt (fp.div RNE x7 x8) (fp.mul RNE x8 x3)))
(assert (fp.lt (fp.sub RNE x0 x7) (fp.div RNE x3 x2)))
(assert (fp.eq (fp.neg x8) (fp.mul RNE x5 x7)))
(assert (fp.geq (fp.mul RNE x9 x3) (fp.add RNE x6 x2)))
(assert (fp.lt (fp.div RNE x9 x5) (fp.div RNE x1 x7)))
(check-sat)
