db/data/2667010381204962342127790347892617212.z3.out
-------------------
2500.113955499
